1856.35
0 36 30 22 64 56 32 20 60 0
0 68 8 59 54 53 52 2 13 28 73 0
0 37 57 15 34 50 3 66 14 38 0
0 11 39 51 26 10 46 29 19 0
0 42 43 44 35 67 72 25 6 4 33 0
0 71 69 5 21 48 55 40 58 65 7 0
0 41 24 27 45 61 70 47 62 74 12 0
0 75 9 31 18 23 1 49 17 16 63 0
